
Gurobi 11.0.3 (linux64) logging started Mon Aug 25 16:16:57 2025

Set parameter LogFile to value "/home/yihong/Coding/OR_SUC/SUC_epstheta_results_bigM100000_thread4/case24_ieee_rts_theta0.001_epsilon0.2_gurobi_seed0_num_gen100_N_WDR50_load_scaling_factor1_proposed_eps_T2quadra_cost_bc1.03.txt"
Set parameter TimeLimit to value 3600
Gurobi Optimizer version 11.0.3 build v11.0.3rc0 (linux64 - "Ubuntu 20.04.6 LTS")

CPU model: AMD EPYC 7532 32-Core Processor, instruction set [SSE2|AVX|AVX2]
Thread count: 64 physical cores, 128 logical processors, using up to 4 threads

Academic license 2399124 - for non-commercial use only - registered to yi___@ed.ac.uk
Optimize a model with 5070 rows, 2531 columns and 192230 nonzeros
Model fingerprint: 0x9365f668
Model has 200 quadratic constraints
Variable types: 2331 continuous, 200 integer (200 binary)
Coefficient statistics:
  Matrix range     [3e-04, 2e+03]
  QMatrix range    [2e-03, 8e-03]
  QLMatrix range   [1e-03, 6e+01]
  Objective range  [1e+00, 1e+00]
  Bounds range     [1e+00, 1e+00]
  RHS range        [5e-02, 9e+03]
Presolve removed 4441 rows and 1265 columns
Presolve time: 0.04s
Presolved: 629 rows, 1266 columns, 7130 nonzeros
Presolved model has 200 quadratic constraint(s)
Variable types: 1066 continuous, 200 integer (200 binary)

Root relaxation: objective 1.965442e+03, 365 iterations, 0.00 seconds (0.00 work units)

    Nodes    |    Current Node    |     Objective Bounds      |     Work
 Expl Unexpl |  Obj  Depth IntInf | Incumbent    BestBd   Gap | It/Node Time

     0     0 1965.44249    0    4          - 1965.44249      -     -    0s
     0     0 18510.1210    0   75          - 18510.1210      -     -    0s
     0     0 51693.0522    0   36          - 51693.0522      -     -    0s
     0     0 51696.4381    0   36          - 51696.4381      -     -    0s
     0     0 51727.3706    0   10          - 51727.3706      -     -    0s
     0     0 51727.5599    0   10          - 51727.5599      -     -    0s
     0     0 51727.5599    0   10          - 51727.5599      -     -    0s
     0     2 51727.5599    0   10          - 51727.5599      -     -    0s
H   60    62                    51734.885817 51732.1133  0.01%   5.0    0s
*   60    62              16    51734.885817 51732.1133  0.01%   5.1    0s

Cutting planes:
  Gomory: 14
  Implied bound: 53
  MIR: 24
  Flow cover: 73
  RLT: 1

Explored 71 nodes (1702 simplex iterations) in 0.30 seconds (0.25 work units)
Thread count was 4 (of 128 available processors)

Solution count 2: 51734.9 51734.9 

Optimal solution found (tolerance 1.00e-03)
Warning: max constraint violation (4.8214e-07) exceeds tolerance
Best objective 5.173488581720e+04, best bound 5.173211334632e+04, gap 0.0054%

Gurobi 11.0.3 (linux64) logging started Mon Aug 25 16:16:58 2025

Set parameter LogFile to value "/home/yihong/Coding/OR_SUC/SUC_epstheta_results_bigM100000_thread4/case24_ieee_rts_theta0.001_epsilon0.2_gurobi_seed0_num_gen100_N_WDR50_load_scaling_factor1_proposed_eps_T2quadra_cost_bc1.03.txt"
Set parameter TimeLimit to value 3600
Gurobi Optimizer version 11.0.3 build v11.0.3rc0 (linux64 - "Ubuntu 20.04.6 LTS")

CPU model: AMD EPYC 7532 32-Core Processor, instruction set [SSE2|AVX|AVX2]
Thread count: 64 physical cores, 128 logical processors, using up to 4 threads

Academic license 2399124 - for non-commercial use only - registered to yi___@ed.ac.uk
Optimize a model with 5070 rows, 2532 columns and 192799 nonzeros
Model fingerprint: 0x613e8d57
Model has 201 quadratic constraints
Variable types: 2332 continuous, 200 integer (200 binary)
Coefficient statistics:
  Matrix range     [3e-04, 2e+03]
  QMatrix range    [2e-03, 5e+01]
  QLMatrix range   [1e-03, 6e+01]
  Objective range  [1e+00, 1e+00]
  Bounds range     [2e-01, 1e+00]
  RHS range        [1e+00, 5e+04]
  QRHS range       [5e-02, 5e-02]
Presolve removed 4232 rows and 1159 columns
Presolve time: 0.05s
Presolved: 1040 rows, 1573 columns, 8802 nonzeros
Presolved model has 200 quadratic constraint(s)
Presolved model has 1 bilinear constraint(s)

Solving non-convex MIQCP

Variable types: 1369 continuous, 204 integer (204 binary)

Root relaxation: objective 1.429434e-05, 1317 iterations, 0.02 seconds (0.03 work units)

    Nodes    |    Current Node    |     Objective Bounds      |     Work
 Expl Unexpl |  Obj  Depth IntInf | Incumbent    BestBd   Gap | It/Node Time

     0     0    0.00001    0    3          -    0.00001      -     -    0s
     0     0    0.00001    0    1          -    0.00001      -     -    0s
H    0     0                       0.0068851    0.00001   100%     -    0s
     0     0    0.00001    0    2    0.00689    0.00001   100%     -    0s
     0     0    0.00001    0    2    0.00689    0.00001   100%     -    0s
     0     0    0.00001    0    2    0.00689    0.00001   100%     -    0s
     0     0    0.00001    0    2    0.00689    0.00001   100%     -    0s
H    0     0                       0.0030140    0.00001   100%     -    0s
     0     2    0.00001    0    2    0.00301    0.00001   100%     -    0s
H    3     8                       0.0030139    0.00001   100%  78.0    0s
H   62    49                       0.0004287    0.00001  96.7%  68.5    0s
*   62    49              11       0.0004287    0.00001  96.7%  68.8    0s
H   69    52                       0.0003365    0.00001  95.8%  62.7    0s
*   69    52              12       0.0003365    0.00001  95.8%  62.7    0s
H   94    57                       0.0003086    0.00001  95.4%  49.6    0s
*   94    57               6       0.0003086    0.00001  95.4%  49.6    0s
H  110    45                       0.0003079    0.00007  76.7%  43.9    1s
*  110    45               8       0.0003079    0.00007  76.7%  43.9    1s
H  125    58                       0.0003007    0.00007  76.1%  38.8    1s
*  125    58               6       0.0003007    0.00007  76.1%  38.9    1s
H  192    72                       0.0002990    0.00007  75.9%  27.3    1s
*  192    72              17       0.0002990    0.00007  75.9%  27.4    1s
H  197    72                       0.0002982    0.00007  75.8%  26.8    1s
*  197    72              20       0.0002982    0.00007  75.8%  26.8    1s
H  234    93                       0.0002835    0.00017  41.4%  23.3    1s
*  234    93              22       0.0002835    0.00017  41.4%  23.3    1s

Cutting planes:
  Gomory: 1
  Implied bound: 4
  Inf proof: 9

Explored 302 nodes (7106 simplex iterations) in 1.27 seconds (1.17 work units)
Thread count was 4 (of 128 available processors)

Solution count 10: 0.00028346 0.000298227 0.000298984 ... 0.00301399

Optimal solution found (tolerance 1.00e-03)
Best objective 2.834597341341e-04, best bound 2.834406492612e-04, gap 0.0067%
